Bi4 Se6
1.0
   4.1913662136017180    0.0000000000000000   -0.0000000050371511
   2.0956830164823552    3.5275370204771499    0.8556579163945185
   0.0000000000000000    0.0000000000000000   41.0620987942011553
Bi Se
4 6
Selective dynamics
direct
   0.3984350000000000    0.2031299999999999    0.1738262500000000 T T T Bi
   0.6015649999999999    0.7968700000000002    0.0761737499999999 F F F Bi
   0.3984350000000000    0.2031299999999999    0.4238262500000000 T T T Bi
   0.6015649999999999    0.7968700000000002    0.3261737499999999 T T T Bi
   0.0000000000000000    0.0000000000000000    0.1250000000000000 T T T Se
   0.2157150000000000    0.5685700000000000    0.0367862500000000 F F F Se
   0.7842850000000000    0.4314300000000000    0.2132137500000000 T T T Se
   0.0000000000000000    0.0000000000000000    0.3750000000000000 T T T Se
   0.2157150000000000    0.5685700000000000    0.2867862500000000 T T T Se
   0.7842850000000000    0.4314300000000000    0.4632137500000000 T T T Se
