P48 W24
1.0
   4.9837402299999987    0.0000000000000000   -3.1854658011026036
  -0.0000000000000028    5.5855551264767138   -4.7781979108926871
   0.0000000000000000    0.0000000000000000   60.5238502209494555
P W
48 24
Selective dynamics
direct
   0.6172870900000000    0.8612775499999998    0.0451859273684211 F F F P
   0.1172870900000000    0.1387214500000000    0.0407735778947368 F F F P
   0.8006707900000000    0.4009221700000000    0.0448095663157895 F F F P
   0.3006697900000000    0.5990798300000000    0.0078220126315790 F F F P
   0.6172870900000000    0.8612775499999998    0.0978175063157895 F F F P
   0.1172870900000000    0.1387214500000000    0.0934051568421053 F F F P
   0.8006707900000000    0.4009221700000000    0.0974411452631579 F F F P
   0.3006697900000000    0.5990798300000000    0.0604535915789474 F F F P
   0.6172870900000000    0.8612775499999998    0.1504490852631579 F F F P
   0.1172870900000000    0.1387214500000000    0.1460367357894737 T T T P
   0.8006707900000000    0.4009221700000000    0.1500727242105263 F F F P
   0.3006697900000000    0.5990798300000000    0.1130851705263158 F F F P
   0.6172870900000000    0.8612775499999998    0.2030806642105263 T T T P
   0.1172870900000000    0.1387214500000000    0.1986683147368421 T T T P
   0.8006707900000000    0.4009221700000000    0.2027043031578947 T T T P
   0.3006697900000000    0.5990798300000000    0.1657167494736842 T T T P
   0.6172870900000000    0.8612775499999998    0.2557122431578948 T T T P
   0.1172870900000000    0.1387214500000000    0.2512998936842105 T T T P
   0.8006707900000000    0.4009221700000000    0.2553358821052631 T T T P
   0.3006697900000000    0.5990798300000000    0.2183483284210526 T T T P
   0.6172870900000000    0.8612775499999998    0.3083438221052631 T T T P
   0.1172870900000000    0.1387214500000000    0.3039314726315789 T T T P
   0.8006707900000000    0.4009221700000000    0.3079674610526316 T T T P
   0.3006697900000000    0.5990798300000000    0.2709799073684210 T T T P
   0.6172870900000000    0.8612775499999998    0.3609754010526316 T T T P
   0.1172870900000000    0.1387214500000000    0.3565630515789474 T T T P
   0.8006707900000000    0.4009221700000000    0.3605990400000000 T T T P
   0.3006697900000000    0.5990798300000000    0.3236114863157895 T T T P
   0.6172870900000000    0.8612775499999998    0.4136069800000000 T T T P
   0.1172870900000000    0.1387214500000000    0.4091946305263158 T T T P
   0.8006707900000000    0.4009221700000000    0.4132306189473684 T T T P
   0.3006697900000000    0.5990798300000000    0.3762430652631579 T T T P
   0.6172870900000000    0.8612775499999998    0.4662385589473684 T T T P
   0.1172870900000000    0.1387214500000000    0.4618262094736842 T T T P
   0.8006707900000000    0.4009221700000000    0.4658621978947368 T T T P
   0.3006697900000000    0.5990798300000000    0.4288746442105263 T T T P
   0.6172870900000000    0.8612775499999998    0.5188701378947368 T T T P
   0.1172870900000000    0.1387214500000000    0.5144577884210526 T T T P
   0.8006707900000000    0.4009221700000000    0.5184937768421052 T T T P
   0.3006697900000000    0.5990798300000000    0.4815062231578947 T T T P
   0.6172870900000000    0.8612775499999998    0.5715017168421053 T T T P
   0.1172870900000000    0.1387214500000000    0.5670893673684210 T T T P
   0.8006707900000000    0.4009221700000000    0.5711253557894737 T T T P
   0.3006697900000000    0.5990798300000000    0.5341378021052632 T T T P
   0.6172870900000000    0.8612775499999998    0.6241332957894737 T T T P
   0.1172870900000000    0.1387214500000000    0.6197209463157896 T T T P
   0.8006707900000000    0.4009221700000000    0.6237569347368421 T T T P
   0.3006697900000000    0.5990798300000000    0.5867693810526317 T T T P
   0.4990411100000000    0.1870328300000000    0.0383641089473684 F F F W
   0.9990411100000000    0.8129671700000000    0.0351484510526316 F F F W
   0.4990411100000000    0.1870328300000000    0.0909956878947369 F F F W
   0.9990411100000000    0.8129671700000000    0.0877800300000000 F F F W
   0.4990411100000000    0.1870328300000000    0.1436272668421053 T T T W
   0.9990411100000000    0.8129671700000000    0.1404116089473684 F F F W
   0.4990411100000000    0.1870328300000000    0.1962588457894737 T T T W
   0.9990411100000000    0.8129671700000000    0.1930431878947368 F F F W
   0.4990411100000000    0.1870328300000000    0.2488904247368421 T T T W
   0.9990411100000000    0.8129671700000000    0.2456747668421053 T T T W
   0.4990411100000000    0.1870328300000000    0.3015220036842105 T T T W
   0.9990411100000000    0.8129671700000000    0.2983063457894737 T T T W
   0.4990411100000000    0.1870328300000000    0.3541535826315789 T T T W
   0.9990411100000000    0.8129671700000000    0.3509379247368421 T T T W
   0.4990411100000000    0.1870328300000000    0.4067851615789473 T T T W
   0.9990411100000000    0.8129671700000000    0.4035695036842105 T T T W
   0.4990411100000000    0.1870328300000000    0.4594167405263158 T T T W
   0.9990411100000000    0.8129671700000000    0.4562010826315789 T T T W
   0.4990411100000000    0.1870328300000000    0.5120483194736842 T T T W
   0.9990411100000000    0.8129671700000000    0.5088326615789474 T T T W
   0.4990411100000000    0.1870328300000000    0.5646798984210526 T T T W
   0.9990411100000000    0.8129671700000000    0.5614642405263157 T T T W
   0.4990411100000000    0.1870328300000000    0.6173114773684211 T T T W
   0.9990411100000000    0.8129671700000000    0.6140958194736842 T T T W
